Ordonnancement/plne/source/petit_instance/4job/4job_8.dat
data;
param nombreJob := 4;
param nombreRessource := 3;
param duree := 1 5 2 3 3 2 4 7;
param capaciteRessource := 1 7 2 16 3 15;
param besoinRessource : 1 2 3 :=
                    1   3 1 2
                    2   2 1 5
                    3   1 7 2
                    4   2 3 8;
end;

