Ordonnancement/plne/source/glpk_resultat/4job/4job_8.sol
Problem:    glpsolRcpsp
Rows:       184
Columns:    69 (68 integer, 68 binary)
Non-zeros:  1009
Status:     INTEGER OPTIMAL
Objective:  obj = 7 (MINimum)

   No.   Row name        Activity     Lower bound   Upper bound
------ ------------    ------------- ------------- -------------
     1 periode[1]                  5             5             = 
     2 periode[2]                  3             3             = 
     3 periode[3]                  2             2             = 
     4 periode[4]                  7             7             = 
     5 complet[1,1]                5                           5 
     6 complet[1,2]               -1                           5 
     7 complet[1,3]                3                           5 
     8 complet[1,4]                2                           5 
     9 complet[1,5]                1                           5 
    10 complet[1,6]                0                           5 
    11 complet[1,7]                5                           5 
    12 complet[1,8]                0                           5 
    13 complet[1,9]                0                           5 
    14 complet[1,10]
                                   0                           5 
    15 complet[1,11]
                                   0                           5 
    16 complet[1,12]
                                   0                           5 
    17 complet[1,13]
                                   0                           5 
    18 complet[1,14]
                                   0                           5 
    19 complet[1,15]
                                   0                           5 
    20 complet[2,1]                1                           3 
    21 complet[2,2]                0                           3 
    22 complet[2,3]                3                           3 
    23 complet[2,4]                0                           3 
    24 complet[2,5]                0                           3 
    25 complet[2,6]                0                           3 
    26 complet[2,7]                0                           3 
    27 complet[2,8]                0                           3 
    28 complet[2,9]                0                           3 
    29 complet[2,10]
                                   0                           3 
    30 complet[2,11]
                                   0                           3 
    31 complet[2,12]
                                   0                           3 
    32 complet[2,13]
                                   0                           3 
    33 complet[2,14]
                                   0                           3 
    34 complet[2,15]
                                   0                           3 
    35 complet[3,1]                0                           2 
    36 complet[3,2]                2                           2 
    37 complet[3,3]                0                           2 
    38 complet[3,4]                0                           2 
    39 complet[3,5]                0                           2 
    40 complet[3,6]                0                           2 
    41 complet[3,7]                0                           2 
    42 complet[3,8]                0                           2 
    43 complet[3,9]                0                           2 
    44 complet[3,10]
                                   0                           2 
    45 complet[3,11]
                                   0                           2 
    46 complet[3,12]
                                   0                           2 
    47 complet[3,13]
                                   0                           2 
    48 complet[3,14]
                                   0                           2 
    49 complet[3,15]
                                   0                           2 
    50 complet[4,1]                5                           7 
    51 complet[4,2]                4                           7 
    52 complet[4,3]                3                           7 
    53 complet[4,4]                2                           7 
    54 complet[4,5]                1                           7 
    55 complet[4,6]                0                           7 
    56 complet[4,7]                7                           7 
    57 complet[4,8]                0                           7 
    58 complet[4,9]                0                           7 
    59 complet[4,10]
                                   0                           7 
    60 complet[4,11]
                                   0                           7 
    61 complet[4,12]
                                   0                           7 
    62 complet[4,13]
                                   0                           7 
    63 complet[4,14]
                                   0                           7 
    64 complet[4,15]
                                   0                           7 
    65 cmax[1,1]                   7            -0               
    66 cmax[1,2]                   7            -0               
    67 cmax[1,3]                   4            -0               
    68 cmax[1,4]                   3            -0               
    69 cmax[1,5]                   2            -0               
    70 cmax[1,6]                   1            -0               
    71 cmax[1,7]                   0            -0               
    72 cmax[1,8]                   7            -0               
    73 cmax[1,9]                   7            -0               
    74 cmax[1,10]                  7            -0               
    75 cmax[1,11]                  7            -0               
    76 cmax[1,12]                  7            -0               
    77 cmax[1,13]                  7            -0               
    78 cmax[1,14]                  7            -0               
    79 cmax[1,15]                  7            -0               
    80 cmax[1,16]                  7            -0               
    81 cmax[1,17]                  7            -0               
    82 cmax[2,1]                   6            -0               
    83 cmax[2,2]                   5            -0               
    84 cmax[2,3]                   4            -0               
    85 cmax[2,4]                   7            -0               
    86 cmax[2,5]                   7            -0               
    87 cmax[2,6]                   7            -0               
    88 cmax[2,7]                   7            -0               
    89 cmax[2,8]                   7            -0               
    90 cmax[2,9]                   7            -0               
    91 cmax[2,10]                  7            -0               
    92 cmax[2,11]                  7            -0               
    93 cmax[2,12]                  7            -0               
    94 cmax[2,13]                  7            -0               
    95 cmax[2,14]                  7            -0               
    96 cmax[2,15]                  7            -0               
    97 cmax[2,16]                  7            -0               
    98 cmax[2,17]                  7            -0               
    99 cmax[3,1]                   6            -0               
   100 cmax[3,2]                   5            -0               
   101 cmax[3,3]                   7            -0               
   102 cmax[3,4]                   7            -0               
   103 cmax[3,5]                   7            -0               
   104 cmax[3,6]                   7            -0               
   105 cmax[3,7]                   7            -0               
   106 cmax[3,8]                   7            -0               
   107 cmax[3,9]                   7            -0               
   108 cmax[3,10]                  7            -0               
   109 cmax[3,11]                  7            -0               
   110 cmax[3,12]                  7            -0               
   111 cmax[3,13]                  7            -0               
   112 cmax[3,14]                  7            -0               
   113 cmax[3,15]                  7            -0               
   114 cmax[3,16]                  7            -0               
   115 cmax[3,17]                  7            -0               
   116 cmax[4,1]                   6            -0               
   117 cmax[4,2]                   5            -0               
   118 cmax[4,3]                   4            -0               
   119 cmax[4,4]                   3            -0               
   120 cmax[4,5]                   2            -0               
   121 cmax[4,6]                   1            -0               
   122 cmax[4,7]                   0            -0               
   123 cmax[4,8]                   7            -0               
   124 cmax[4,9]                   7            -0               
   125 cmax[4,10]                  7            -0               
   126 cmax[4,11]                  7            -0               
   127 cmax[4,12]                  7            -0               
   128 cmax[4,13]                  7            -0               
   129 cmax[4,14]                  7            -0               
   130 cmax[4,15]                  7            -0               
   131 cmax[4,16]                  7            -0               
   132 cmax[4,17]                  7            -0               
   133 ressource[1,1]
                                   5                           7 
   134 ressource[1,2]
                                   5                           7 
   135 ressource[1,3]
                                   7                           7 
   136 ressource[1,4]
                                   5                           7 
   137 ressource[1,5]
                                   5                           7 
   138 ressource[1,6]
                                   5                           7 
   139 ressource[1,7]
                                   5                           7 
   140 ressource[1,8]
                                   0                           7 
   141 ressource[1,9]
                                   0                           7 
   142 ressource[1,10]
                                   0                           7 
   143 ressource[1,11]
                                   0                           7 
   144 ressource[1,12]
                                   0                           7 
   145 ressource[1,13]
                                   0                           7 
   146 ressource[1,14]
                                   0                           7 
   147 ressource[1,15]
                                   0                           7 
   148 ressource[1,16]
                                   0                           7 
   149 ressource[1,17]
                                   0                           7 
   150 ressource[2,1]
                                  11                          16 
   151 ressource[2,2]
                                  11                          16 
   152 ressource[2,3]
                                   5                          16 
   153 ressource[2,4]
                                   4                          16 
   154 ressource[2,5]
                                   4                          16 
   155 ressource[2,6]
                                   4                          16 
   156 ressource[2,7]
                                   4                          16 
   157 ressource[2,8]
                                   0                          16 
   158 ressource[2,9]
                                   0                          16 
   159 ressource[2,10]
                                   0                          16 
   160 ressource[2,11]
                                   0                          16 
   161 ressource[2,12]
                                   0                          16 
   162 ressource[2,13]
                                   0                          16 
   163 ressource[2,14]
                                   0                          16 
   164 ressource[2,15]
                                   0                          16 
   165 ressource[2,16]
                                   0                          16 
   166 ressource[2,17]
                                   0                          16 
   167 ressource[3,1]
                                  15                          15 
   168 ressource[3,2]
                                  15                          15 
   169 ressource[3,3]
                                  15                          15 
   170 ressource[3,4]
                                  10                          15 
   171 ressource[3,5]
                                  10                          15 
   172 ressource[3,6]
                                  10                          15 
   173 ressource[3,7]
                                  10                          15 
   174 ressource[3,8]
                                   0                          15 
   175 ressource[3,9]
                                   0                          15 
   176 ressource[3,10]
                                   0                          15 
   177 ressource[3,11]
                                   0                          15 
   178 ressource[3,12]
                                   0                          15 
   179 ressource[3,13]
                                   0                          15 
   180 ressource[3,14]
                                   0                          15 
   181 ressource[3,15]
                                   0                          15 
   182 ressource[3,16]
                                   0                          15 
   183 ressource[3,17]
                                   0                          15 
   184 obj                         7                             

   No. Column name       Activity     Lower bound   Upper bound
------ ------------    ------------- ------------- -------------
     1 x[1,1]       *              0             0             1 
     2 x[1,2]       *              0             0             1 
     3 x[1,3]       *              1             0             1 
     4 x[1,4]       *              1             0             1 
     5 x[1,5]       *              1             0             1 
     6 x[1,6]       *              1             0             1 
     7 x[1,7]       *              1             0             1 
     8 x[1,8]       *              0             0             1 
     9 x[1,9]       *              0             0             1 
    10 x[1,10]      *              0             0             1 
    11 x[1,11]      *              0             0             1 
    12 x[1,12]      *              0             0             1 
    13 x[1,13]      *              0             0             1 
    14 x[1,14]      *              0             0             1 
    15 x[1,15]      *              0             0             1 
    16 x[1,16]      *              0             0             1 
    17 x[1,17]      *              0             0             1 
    18 x[2,1]       *              1             0             1 
    19 x[2,2]       *              1             0             1 
    20 x[2,3]       *              1             0             1 
    21 x[2,4]       *              0             0             1 
    22 x[2,5]       *              0             0             1 
    23 x[2,6]       *              0             0             1 
    24 x[2,7]       *              0             0             1 
    25 x[2,8]       *              0             0             1 
    26 x[2,9]       *              0             0             1 
    27 x[2,10]      *              0             0             1 
    28 x[2,11]      *              0             0             1 
    29 x[2,12]      *              0             0             1 
    30 x[2,13]      *              0             0             1 
    31 x[2,14]      *              0             0             1 
    32 x[2,15]      *              0             0             1 
    33 x[2,16]      *              0             0             1 
    34 x[2,17]      *              0             0             1 
    35 x[3,1]       *              1             0             1 
    36 x[3,2]       *              1             0             1 
    37 x[3,3]       *              0             0             1 
    38 x[3,4]       *              0             0             1 
    39 x[3,5]       *              0             0             1 
    40 x[3,6]       *              0             0             1 
    41 x[3,7]       *              0             0             1 
    42 x[3,8]       *              0             0             1 
    43 x[3,9]       *              0             0             1 
    44 x[3,10]      *              0             0             1 
    45 x[3,11]      *              0             0             1 
    46 x[3,12]      *              0             0             1 
    47 x[3,13]      *              0             0             1 
    48 x[3,14]      *              0             0             1 
    49 x[3,15]      *              0             0             1 
    50 x[3,16]      *              0             0             1 
    51 x[3,17]      *              0             0             1 
    52 x[4,1]       *              1             0             1 
    53 x[4,2]       *              1             0             1 
    54 x[4,3]       *              1             0             1 
    55 x[4,4]       *              1             0             1 
    56 x[4,5]       *              1             0             1 
    57 x[4,6]       *              1             0             1 
    58 x[4,7]       *              1             0             1 
    59 x[4,8]       *              0             0             1 
    60 x[4,9]       *              0             0             1 
    61 x[4,10]      *              0             0             1 
    62 x[4,11]      *              0             0             1 
    63 x[4,12]      *              0             0             1 
    64 x[4,13]      *              0             0             1 
    65 x[4,14]      *              0             0             1 
    66 x[4,15]      *              0             0             1 
    67 x[4,16]      *              0             0             1 
    68 x[4,17]      *              0             0             1 
    69 z                           7                             

Integer feasibility conditions:

KKT.PE: max.abs.err = 0.00e+00 on row 0
        max.rel.err = 0.00e+00 on row 0
        High quality

KKT.PB: max.abs.err = 0.00e+00 on row 0
        max.rel.err = 0.00e+00 on row 0
        High quality

End of output
